NAME : senseval3_subTrees13.gtsp.pid27286.gtsp.75162864.tour
COMMENT : Length = 75162864
COMMENT : Found by LKH [Keld Helsgaun] Tue Mar 13 16:43:10 2018
TYPE : TOUR
DIMENSION : 111
TOUR_SECTION
1
46
47
81
82
83
84
86
87
88
89
85
48
49
50
51
52
53
54
55
56
57
58
59
60
61
62
63
64
65
66
67
68
69
70
71
72
73
74
75
76
77
78
79
80
29
30
17
18
19
20
21
22
23
24
25
26
27
28
33
34
35
36
37
38
31
32
39
40
41
42
43
44
12
13
14
15
16
8
9
10
11
45
104
90
91
92
93
94
95
96
97
98
99
100
101
102
103
108
109
110
111
106
107
105
3
4
5
6
7
2
-1
EOF
